
n_res = 6;
rcap = [113, 95, 120, 117, 754, 807];
rtype = [1, 1, 1, 1, 2, 2];
n_tasks = 50;
modes =  [{1, 2, 3}, {4, 5, 6}, {7, 8, 9}, {10, 11, 12}, {13, 14, 15}, {16, 17, 18}, {19, 20, 21}, {22, 23, 24}, {25, 26, 27}, {28, 29, 30}, {31, 32, 33}, {34, 35, 36}, {37, 38, 39}, {40, 41, 42}, {43, 44, 45}, {46, 47, 48}, {49, 50, 51}, {52, 53, 54}, {55, 56, 57}, {58, 59, 60}, {61, 62, 63}, {64, 65, 66}, {67, 68, 69}, {70, 71, 72}, {73, 74, 75}, {76, 77, 78}, {79, 80, 81}, {82, 83, 84}, {85, 86, 87}, {88, 89, 90}, {91, 92, 93}, {94, 95, 96}, {97, 98, 99}, {100, 101, 102}, {103, 104, 105}, {106, 107, 108}, {109, 110, 111}, {112, 113, 114}, {115, 116, 117}, {118, 119, 120}, {121, 122, 123}, {124, 125, 126}, {127, 128, 129}, {130, 131, 132}, {133, 134, 135}, {136, 137, 138}, {139, 140, 141}, {142, 143, 144}, {145, 146, 147}, {148, 149, 150}];
succ =  [{50, 49, 44, 40, 34, 33, 32, 30, 28, 27, 24, 18}, {47, 46, 44, 43, 42, 37, 33, 32, 31, 30, 27, 25, 24}, {41, 32, 31, 30, 28, 27, 26, 23, 18}, {49, 32, 26, 18, 11}, {50, 49, 47, 46, 45, 44, 43, 42, 41, 40, 37, 32, 31, 30, 27}, {50, 47, 43, 40, 32, 24, 20, 14}, {45, 44, 43, 42, 40, 37, 31, 30, 27, 20}, {44, 32, 31, 30, 20, 18}, {44, 41, 39, 32, 26, 25, 23}, {49, 41, 40, 32, 31, 18}, {50, 46, 43, 41, 40, 38, 37, 35, 31, 30}, {45, 42, 40, 37, 35, 31, 30, 24}, {44, 43, 41, 37, 33, 31, 25}, {49, 48, 44, 42, 41, 37, 35, 30}, {50, 44, 42, 40, 38, 37, 35, 31}, {43, 39, 37, 32, 23}, {49, 48, 40, 35, 31, 30}, {47, 46, 42, 38, 37, 36, 35}, {43, 42, 41, 39, 38, 37, 36}, {48, 41, 38, 36, 35}, {50, 47, 46, 41, 36}, {45, 40, 37, 30}, {42, 40, 38, 35}, {48, 41, 39}, {40, 36, 35}, {45, 43, 37}, {36, 35}, {45, 37}, {36, 35}, {36}, {39}, {38}, {38}, {35}, {}, {}, {}, {}, {}, {}, {}, {}, {}, {}, {}, {}, {}, {}, {}, {}];
n_opt = 150;
dur = [5, 10, 21, 14, 25, 29, 13, 17, 23, 14, 15, 28, 12, 18, 22, 12, 27, 29, 12, 20, 22, 6, 16, 22, 15, 22, 23, 14, 15, 17, 5, 7, 15, 7, 8, 30, 8, 19, 28, 3, 15, 22, 4, 6, 10, 1, 8, 13, 9, 16, 19, 6, 17, 25, 14, 16, 30, 5, 8, 27, 2, 3, 17, 2, 15, 26, 18, 23, 29, 16, 18, 23, 13, 17, 30, 12, 14, 19, 15, 16, 18, 18, 23, 24, 8, 20, 30, 3, 15, 21, 6, 19, 21, 16, 17, 28, 8, 13, 25, 5, 23, 28, 20, 24, 25, 2, 8, 18, 7, 22, 30, 4, 8, 9, 20, 24, 30, 3, 11, 29, 7, 8, 28, 13, 14, 30, 14, 17, 26, 15, 21, 25, 7, 8, 21, 8, 11, 27, 7, 8, 17, 1, 10, 22, 2, 6, 20, 15, 18, 27];
rreq = [|7, 5, 2, 18, 18, 18, 4, 4, 4, 28, 17, 12, 27, 21, 14, 16, 9, 3, 28, 26, 25, 13, 11, 4, 28, 27, 23, 27, 26, 23, 14, 13, 12, 13, 12, 7, 19, 13, 6, 11, 10, 9, 17, 17, 1, 24, 22, 22, 6, 5, 2, 7, 6, 5, 15, 13, 10, 26, 17, 14, 23, 23, 21, 24, 16, 7, 30, 24, 16, 25, 9, 4, 22, 17, 14, 30, 24, 15, 24, 23, 22, 12, 10, 4, 28, 25, 22, 11, 9, 9, 13, 10, 7, 14, 8, 3, 3, 2, 2, 26, 22, 20, 17, 12, 10, 8, 7, 7, 17, 15, 12, 28, 27, 21, 16, 16, 15, 20, 12, 7, 17, 14, 12, 18, 17, 17, 15, 15, 11, 5, 5, 5, 16, 14, 13, 14, 13, 13, 16, 14, 13, 26, 22, 21, 23, 22, 21, 18, 15, 13
 |13, 8, 1, 20, 17, 6, 1, 1, 1, 27, 20, 18, 10, 9, 9, 25, 16, 15, 8, 7, 6, 23, 23, 21, 5, 3, 3, 27, 16, 9, 25, 14, 9, 25, 16, 6, 17, 12, 9, 14, 8, 4, 4, 3, 3, 11, 8, 7, 7, 6, 2, 28, 12, 9, 10, 9, 6, 11, 6, 5, 26, 26, 25, 6, 4, 3, 19, 12, 7, 17, 12, 11, 25, 23, 23, 3, 2, 2, 13, 6, 2, 29, 27, 27, 28, 26, 23, 23, 16, 6, 22, 8, 8, 22, 18, 6, 21, 21, 21, 20, 18, 16, 27, 26, 26, 29, 24, 15, 26, 17, 6, 25, 25, 21, 7, 6, 6, 16, 10, 7, 17, 13, 13, 27, 22, 21, 22, 12, 12, 18, 12, 9, 2, 1, 1, 26, 21, 11, 22, 22, 21, 24, 24, 22, 20, 13, 5, 22, 19, 17
 |27, 27, 27, 29, 29, 29, 26, 24, 23, 8, 6, 6, 21, 17, 16, 14, 10, 7, 24, 15, 2, 17, 11, 9, 16, 16, 16, 28, 18, 3, 30, 26, 24, 20, 13, 8, 25, 21, 16, 22, 18, 17, 20, 13, 11, 25, 24, 20, 11, 9, 6, 23, 22, 21, 19, 10, 7, 15, 13, 12, 12, 9, 4, 23, 15, 10, 25, 18, 7, 14, 12, 4, 23, 20, 17, 10, 10, 9, 16, 16, 16, 16, 11, 7, 25, 23, 17, 30, 29, 29, 21, 19, 17, 27, 25, 22, 30, 21, 14, 26, 24, 19, 11, 9, 5, 25, 18, 5, 29, 21, 18, 19, 9, 5, 20, 18, 17, 14, 12, 10, 17, 15, 5, 18, 13, 11, 27, 27, 24, 27, 21, 16, 9, 8, 8, 16, 11, 8, 5, 5, 3, 25, 18, 16, 20, 13, 5, 20, 12, 2
 |9, 7, 7, 14, 10, 7, 25, 15, 7, 23, 10, 9, 20, 18, 15, 18, 15, 10, 20, 15, 7, 19, 13, 10, 13, 10, 9, 19, 17, 5, 25, 18, 12, 23, 16, 11, 12, 8, 4, 6, 6, 5, 27, 24, 24, 7, 7, 2, 25, 23, 23, 29, 27, 26, 29, 24, 21, 26, 25, 25, 29, 26, 24, 22, 20, 16, 7, 6, 4, 23, 17, 14, 28, 21, 17, 18, 16, 10, 27, 13, 5, 14, 11, 11, 24, 21, 12, 15, 13, 10, 6, 4, 4, 19, 14, 2, 15, 15, 15, 15, 15, 15, 15, 14, 9, 28, 17, 9, 18, 17, 16, 21, 20, 18, 25, 13, 2, 23, 19, 8, 21, 12, 10, 30, 29, 29, 27, 24, 19, 18, 9, 6, 18, 16, 13, 25, 17, 13, 16, 9, 9, 20, 19, 7, 22, 11, 11, 5, 5, 5
 |20, 15, 8, 9, 8, 7, 23, 22, 12, 25, 22, 21, 26, 25, 21, 25, 22, 14, 19, 14, 4, 23, 18, 17, 25, 20, 20, 15, 15, 14, 12, 5, 5, 30, 18, 14, 24, 23, 15, 21, 16, 12, 13, 6, 6, 14, 13, 13, 25, 22, 20, 12, 10, 3, 29, 28, 28, 22, 15, 2, 29, 27, 24, 20, 17, 10, 21, 14, 5, 15, 15, 15, 11, 8, 4, 20, 13, 5, 11, 11, 1, 15, 12, 6, 22, 22, 16, 11, 9, 9, 17, 16, 16, 25, 24, 23, 22, 20, 16, 20, 14, 12, 17, 16, 15, 9, 5, 4, 8, 5, 5, 17, 12, 11, 19, 17, 14, 4, 3, 3, 8, 8, 8, 14, 10, 8, 6, 6, 5, 18, 16, 12, 26, 16, 13, 30, 28, 27, 17, 15, 14, 15, 11, 8, 17, 10, 4, 28, 22, 16
 |10, 10, 10, 11, 9, 7, 20, 17, 9, 10, 8, 8, 23, 18, 14, 7, 7, 7, 14, 14, 14, 15, 15, 14, 27, 23, 20, 16, 16, 14, 22, 19, 13, 21, 17, 12, 19, 18, 15, 28, 25, 20, 5, 5, 4, 22, 13, 9, 21, 19, 13, 27, 23, 18, 23, 23, 22, 19, 17, 8, 21, 10, 4, 28, 27, 27, 18, 15, 14, 19, 19, 13, 22, 14, 12, 22, 20, 15, 9, 7, 6, 26, 18, 8, 25, 13, 4, 14, 8, 8, 18, 17, 16, 18, 13, 7, 15, 15, 15, 21, 11, 5, 25, 19, 15, 14, 8, 4, 28, 25, 25, 11, 9, 4, 19, 17, 16, 27, 25, 20, 30, 23, 20, 21, 18, 17, 13, 11, 3, 10, 9, 9, 20, 18, 15, 25, 23, 19, 11, 10, 8, 25, 25, 24, 27, 27, 26, 25, 18, 17|];